LengthSchedulingHorizon=3623;
nAttributes=2;
SetupCosts=[[0, 0], [0, 3], [3, 1]];
SetupTimes=[[0, 0], [1, 3], [3, 0]];
nMachines=2;
MinCap=[0, 0];
MaxCap=[69, 87];

initState=[1, 1];
nShifts=5;
ShiftStartTimes = [[82, 941, 1190, 1591, 1729], [0, 0, 0, 405, 1239]];
ShiftEndTimes = [[754, 1137, 1501, 1705, 3466], [0, 0, 0, 1059, 3620]];
nJobs=250;
EligibleMachines = [{1, 2}, {2}, {2}, {1}, {2}, {2}, {2}, {1, 2}, {2}, {2}, {2}, {1}, {1}, {2}, {1, 2}, {1}, {1}, {1}, {1, 2}, {1}, {1}, {1, 2}, {1}, {2}, {1}, {1}, {2}, {2}, {1}, {2}, {2}, {2}, {1}, {2}, {1}, {2}, {1}, {1}, {2}, {1}, {1}, {1}, {1, 2}, {2}, {2}, {2}, {2}, {2}, {2}, {2}, {1, 2}, {1, 2}, {2}, {2}, {2}, {1}, {2}, {2}, {1, 2}, {2}, {1, 2}, {1}, {2}, {1, 2}, {2}, {2}, {1}, {2}, {1}, {1}, {2}, {1}, {2}, {1, 2}, {1, 2}, {1}, {2}, {1}, {2}, {2}, {1}, {2}, {1}, {1}, {2}, {1}, {2}, {1}, {1}, {2}, {2}, {2}, {2}, {1, 2}, {1, 2}, {1}, {1}, {1}, {2}, {1}, {1}, {2}, {2}, {2}, {1}, {1}, {2}, {2}, {1}, {2}, {2}, {2}, {1, 2}, {1}, {2}, {2}, {2}, {2}, {1}, {1}, {1}, {1, 2}, {1}, {1, 2}, {2}, {2}, {2}, {1}, {1, 2}, {2}, {1}, {2}, {1}, {1, 2}, {1}, {1, 2}, {1}, {1}, {1, 2}, {1}, {2}, {2}, {2}, {1, 2}, {1}, {1}, {1}, {1}, {2}, {2}, {1, 2}, {2}, {1, 2}, {1}, {1, 2}, {1, 2}, {2}, {1}, {2}, {1}, {1}, {1, 2}, {1, 2}, {1}, {2}, {1, 2}, {2}, {2}, {1}, {1, 2}, {1}, {1}, {2}, {2}, {2}, {2}, {2}, {1}, {1}, {1, 2}, {2}, {2}, {2}, {2}, {1}, {1}, {2}, {2}, {1}, {1}, {1}, {1}, {2}, {2}, {1}, {1, 2}, {1, 2}, {1, 2}, {1, 2}, {1}, {1}, {1}, {1, 2}, {1, 2}, {1, 2}, {2}, {2}, {1}, {1, 2}, {1}, {1, 2}, {1}, {1, 2}, {1}, {1, 2}, {2}, {1, 2}, {2}, {1}, {1}, {2}, {1}, {1, 2}, {1}, {1, 2}, {2}, {2}, {1}, {2}, {1, 2}, {1, 2}, {1}, {1, 2}, {1}, {2}, {1}, {2}, {2}, {1, 2}, {2}, {2}, {2}, {1}, {2}, {1, 2}, {2}, {2}, {1, 2}, {1}, {2}];
EarliestStart=[197, 306, 203, 266, 471, 519, 646, 566, 563, 608, 449, 275, 205, 528, 388, 418, 213, 331, 369, 354, 349, 322, 696, 309, 210, 461, 448, 691, 560, 293, 677, 223, 368, 428, 60, 402, 305, 131, 608, 394, 31, 357, 523, 421, 191, 327, 11, 475, 261, 76, 686, 496, 242, 268, 585, 591, 326, 611, 56, 9, 71, 672, 5, 269, 648, 225, 623, 494, 467, 703, 113, 82, 439, 691, 322, 708, 516, 275, 118, 599, 450, 690, 429, 484, 324, 180, 698, 99, 559, 185, 76, 411, 74, 598, 323, 76, 351, 253, 490, 682, 420, 233, 7, 274, 680, 603, 56, 267, 662, 593, 75, 50, 492, 174, 276, 98, 242, 238, 662, 467, 243, 524, 651, 281, 627, 418, 7, 558, 368, 246, 357, 262, 502, 152, 178, 216, 682, 154, 520, 437, 123, 431, 153, 683, 110, 25, 635, 617, 321, 225, 550, 113, 307, 22, 439, 613, 298, 443, 364, 261, 596, 215, 615, 416, 236, 530, 265, 340, 713, 59, 132, 87, 434, 225, 344, 528, 370, 685, 171, 602, 500, 107, 236, 143, 412, 243, 671, 480, 430, 281, 635, 238, 507, 259, 558, 625, 533, 454, 446, 297, 476, 295, 621, 262, 92, 462, 395, 81, 394, 627, 242, 329, 272, 478, 477, 488, 695, 472, 3, 709, 575, 502, 626, 431, 141, 610, 297, 175, 384, 436, 712, 633, 239, 590, 125, 204, 203, 691, 51, 667, 565, 589, 85, 519, 39, 305, 683, 28, 498, 69];
LatestEnd=[201, 316, 208, 279, 482, 536, 651, 577, 569, 625, 454, 286, 209, 536, 403, 425, 220, 344, 379, 367, 354, 337, 703, 313, 216, 467, 462, 699, 565, 298, 690, 234, 375, 438, 79, 414, 316, 141, 621, 403, 38, 363, 526, 430, 208, 335, 15, 486, 268, 87, 690, 508, 247, 281, 593, 599, 336, 626, 57, 20, 79, 682, 18, 276, 651, 227, 639, 511, 483, 711, 114, 91, 447, 698, 324, 717, 528, 286, 126, 614, 453, 698, 446, 497, 326, 181, 706, 108, 572, 186, 80, 415, 82, 601, 330, 83, 364, 258, 491, 683, 438, 234, 21, 293, 687, 607, 59, 272, 665, 608, 78, 69, 499, 184, 288, 117, 256, 241, 664, 472, 255, 529, 659, 293, 634, 426, 13, 575, 379, 247, 366, 274, 509, 153, 188, 230, 685, 162, 538, 444, 134, 436, 162, 693, 111, 37, 648, 622, 331, 230, 558, 119, 312, 29, 443, 628, 305, 444, 378, 265, 607, 220, 618, 419, 243, 534, 276, 341, 725, 60, 143, 102, 442, 235, 351, 536, 375, 700, 174, 606, 501, 108, 251, 148, 417, 248, 677, 485, 433, 291, 636, 241, 515, 261, 567, 627, 542, 455, 447, 300, 487, 297, 625, 273, 108, 466, 410, 90, 402, 634, 245, 337, 284, 485, 480, 501, 707, 484, 12, 714, 578, 514, 627, 445, 149, 623, 301, 194, 397, 437, 715, 652, 247, 603, 130, 218, 220, 703, 53, 679, 579, 596, 90, 524, 47, 316, 687, 37, 501, 83];
MinTime=[4, 7, 4, 7, 6, 9, 3, 8, 5, 9, 4, 6, 4, 6, 9, 5, 5, 10, 6, 7, 3, 8, 7, 3, 6, 4, 10, 5, 4, 5, 8, 6, 5, 7, 10, 8, 6, 9, 10, 6, 6, 6, 2, 6, 10, 8, 4, 10, 4, 6, 4, 9, 4, 10, 5, 7, 9, 10, 1, 8, 8, 8, 10, 5, 2, 2, 10, 10, 10, 5, 1, 8, 7, 4, 2, 7, 10, 7, 7, 9, 3, 7, 10, 10, 2, 1, 5, 5, 8, 1, 3, 4, 5, 3, 7, 5, 9, 4, 1, 1, 10, 1, 10, 10, 7, 3, 2, 4, 2, 9, 3, 10, 4, 6, 9, 10, 8, 2, 2, 3, 7, 3, 8, 7, 4, 5, 5, 9, 8, 1, 9, 9, 7, 1, 6, 9, 3, 6, 10, 4, 7, 4, 5, 9, 1, 8, 10, 3, 6, 4, 7, 5, 5, 4, 3, 9, 6, 1, 9, 3, 10, 3, 2, 3, 6, 3, 6, 1, 10, 1, 10, 8, 6, 7, 5, 6, 3, 10, 2, 4, 1, 1, 8, 3, 4, 5, 4, 3, 3, 6, 1, 2, 6, 2, 5, 2, 7, 1, 1, 3, 7, 2, 4, 10, 9, 4, 8, 8, 6, 5, 3, 7, 7, 4, 2, 8, 10, 7, 5, 5, 2, 7, 1, 9, 6, 8, 3, 10, 8, 1, 3, 10, 5, 10, 4, 10, 9, 7, 2, 10, 10, 6, 3, 3, 5, 9, 4, 7, 2, 9];
MaxTime=[10, 10, 6, 8, 10, 9, 9, 9, 6, 9, 8, 7, 9, 6, 10, 7, 7, 10, 9, 9, 10, 8, 10, 9, 6, 7, 10, 8, 6, 8, 9, 10, 6, 10, 10, 10, 6, 9, 10, 7, 10, 9, 10, 6, 10, 8, 4, 10, 9, 7, 7, 10, 8, 10, 5, 10, 9, 10, 9, 9, 9, 9, 10, 7, 3, 3, 10, 10, 10, 8, 8, 10, 10, 5, 10, 8, 10, 10, 7, 10, 6, 8, 10, 10, 9, 4, 6, 5, 10, 2, 4, 5, 8, 9, 10, 9, 10, 8, 4, 2, 10, 4, 10, 10, 9, 9, 8, 10, 6, 9, 4, 10, 5, 9, 10, 10, 10, 6, 10, 3, 8, 3, 10, 7, 6, 8, 9, 10, 10, 8, 9, 10, 10, 3, 10, 9, 9, 10, 10, 8, 8, 7, 7, 10, 5, 8, 10, 6, 8, 10, 8, 7, 6, 8, 3, 10, 7, 5, 9, 5, 10, 4, 8, 8, 6, 6, 8, 3, 10, 2, 10, 8, 10, 9, 9, 7, 3, 10, 5, 9, 8, 1, 9, 4, 9, 10, 5, 9, 4, 7, 7, 9, 6, 6, 7, 7, 7, 3, 8, 4, 8, 8, 8, 10, 9, 10, 8, 9, 7, 9, 9, 10, 10, 4, 2, 9, 10, 9, 7, 10, 3, 8, 3, 10, 9, 10, 6, 10, 8, 6, 9, 10, 9, 10, 4, 10, 9, 7, 5, 10, 10, 8, 10, 7, 10, 9, 10, 8, 9, 9];
JobSize=[7, 3, 1, 12, 8, 6, 1, 5, 8, 10, 8, 16, 9, 5, 9, 17, 15, 7, 3, 2, 15, 2, 11, 4, 17, 10, 12, 11, 11, 15, 6, 7, 13, 20, 13, 7, 20, 15, 18, 7, 15, 5, 10, 11, 17, 16, 4, 16, 11, 19, 15, 19, 11, 16, 17, 2, 17, 10, 13, 11, 8, 18, 13, 19, 18, 3, 9, 6, 10, 19, 1, 12, 18, 7, 5, 10, 16, 12, 18, 15, 6, 20, 3, 3, 3, 12, 14, 7, 14, 17, 8, 6, 11, 6, 15, 16, 14, 20, 11, 18, 2, 16, 20, 3, 20, 19, 13, 13, 4, 17, 18, 19, 12, 20, 4, 17, 5, 17, 14, 14, 16, 8, 6, 20, 7, 17, 13, 19, 8, 10, 18, 3, 13, 13, 11, 12, 17, 6, 5, 6, 10, 11, 8, 12, 8, 8, 3, 17, 9, 8, 5, 3, 4, 7, 6, 9, 17, 11, 17, 16, 3, 17, 10, 10, 5, 11, 7, 16, 16, 15, 8, 9, 2, 17, 20, 2, 12, 1, 9, 19, 3, 10, 18, 6, 13, 16, 11, 18, 5, 15, 8, 19, 1, 3, 15, 11, 7, 11, 18, 5, 2, 18, 9, 17, 10, 10, 10, 6, 4, 17, 4, 7, 7, 14, 9, 4, 3, 6, 4, 1, 7, 4, 12, 18, 16, 5, 14, 4, 1, 16, 17, 18, 10, 18, 18, 4, 19, 15, 3, 9, 11, 4, 10, 13, 4, 13, 11, 2, 16, 13];
Attribute=[2, 1, 1, 2, 2, 1, 2, 2, 2, 2, 1, 2, 2, 2, 1, 2, 2, 2, 1, 1, 2, 2, 2, 1, 2, 2, 1, 2, 2, 2, 1, 1, 1, 2, 2, 2, 2, 1, 1, 1, 2, 2, 1, 1, 1, 1, 2, 2, 2, 2, 2, 2, 1, 1, 1, 2, 1, 1, 1, 1, 2, 1, 2, 2, 2, 2, 1, 2, 2, 2, 1, 2, 2, 2, 1, 1, 1, 1, 2, 2, 2, 1, 2, 1, 2, 2, 2, 1, 2, 1, 2, 1, 1, 2, 1, 2, 2, 2, 2, 1, 1, 1, 2, 1, 2, 1, 2, 2, 1, 2, 1, 2, 1, 1, 1, 1, 1, 2, 1, 2, 1, 1, 2, 2, 2, 2, 1, 1, 2, 1, 2, 2, 1, 1, 1, 2, 1, 2, 1, 1, 1, 2, 1, 2, 1, 1, 1, 1, 1, 1, 1, 2, 2, 1, 2, 2, 1, 2, 2, 1, 2, 1, 2, 2, 2, 1, 2, 1, 1, 2, 1, 1, 1, 2, 1, 2, 1, 2, 2, 2, 1, 2, 1, 2, 1, 1, 1, 2, 2, 2, 1, 1, 1, 1, 2, 1, 1, 2, 1, 1, 2, 2, 2, 2, 2, 2, 2, 2, 1, 1, 2, 2, 2, 2, 1, 1, 1, 1, 1, 1, 1, 2, 1, 1, 2, 1, 1, 2, 1, 2, 2, 2, 1, 2, 1, 1, 1, 2, 2, 1, 1, 2, 2, 2, 1, 1, 2, 2, 2, 1];

upper_bound_integer_objective=7500;
mult_factor_total_runtime=2;
mult_factor_finished_toolate=12;
mult_factor_total_setuptimes=0;
mult_factor_total_setupcosts=2;
running_time_bound=1432;
min_duration=1;
max_duration=10;
max_setup_time=3;
max_setup_cost=3;
